s td 34 16 50
b 1 13 32 43
b 2 5 16 21
b 3 4 6 10
b 4 19 20 42
b 5 2 9 35
b 6 2 5 9 43
b 7 5 16 29 43
b 8 15 23 48 49
b 9 1 3 12 14 15 16 24 25 28 31 32 38 40 41 42 47
b 10 1 12 14 16 24 25 28 31 32 36 38 40 41 42 47
b 11 1 12 14 16 24 25 31 32 36 38 40 41 42 43 47
b 12 1 7 12 14 16 24 25 31 32 36 40 41 42 43 47
b 13 1 7 10 12 14 16 24 31 32 36 40 42 43 47 50
b 14 1 6 7 10 12 16 24 31 32 36 40 43 50
b 15 5 6 10 12 16 24 31 32 36 40 43 50
b 16 5 10 12 17 24 31 32 36 40 43 50
b 17 5 9 17 31 32 36 40 43
b 18 9 31 36 37 40
b 19 1 10 14 27 31 32 36 42 47 50
b 20 8 10 14 27 32 36
b 21 1 7 10 12 22 43
b 22 14 30 32 38 43
b 23 28 36 41 46 47
b 24 3 12 14 15 16 24 25 28 31 38 40 41 42 47 49
b 25 3 11 12 14 15 16 24 25 28 31 38 40 42 47 49
b 26 11 12 14 15 24 25 28 34 38 40 42 47 49
b 27 18 25 28 34 40 47
b 28 12 15 19 24 28 34 38 42 47 49
b 29 12 15 19 23 34 38 47 49
b 30 11 12 15 16 24 25 31 40 42 44 47 49
b 31 12 15 16 24 26 40 44
b 32 3 11 14 15 38 40 45 47
b 33 3 11 14 15 33 45
b 34 1 3 39 40 41
1 11
2 15
3 14
4 28
5 6
6 17
7 15
8 29
9 10
9 24
9 34
10 11
10 23
11 12
11 22
12 13
13 14
13 19
13 21
14 15
15 16
16 17
17 18
19 20
24 25
25 26
25 30
25 32
26 27
26 28
28 29
30 31
32 33
